54 15 61 6 19 31 2 47 46 1 16 8 11 9 52 1 21 57 53 37 38 17 1 29 35 60 56 27 34 59 18 51 1 32 26 10 55 4 25 40 28 24 42 1 41 62 30 44 58 33 7 1 48 43 22 5 36 50 12 1 49 13 14 39 20 3 45 23 1 54 15 61 6 19 31 2 47 46 1  (819)
Cost 1613.5

